8
Optimization step: 0. E: -227.80584040521956
C     0.103847     0.131311     0.031255
O     1.433360     1.970615     0.484322
O     0.996564    -2.140561    -0.513499
H     2.874459    -2.078569    -0.485865
C    -2.724541     0.217122     0.039186
H    -3.362456     2.116134     0.458817
H    -3.432171    -0.387892    -1.792436
H    -3.440340    -1.101226     1.443819
8
Optimization step: 1. E: -227.81010676611513
C     0.095882     0.155723     0.036479
O     1.444774     1.900370     0.466672
O     1.009617    -2.103905    -0.503517
H     2.803361    -1.989657    -0.464155
C    -2.739156     0.226484     0.041500
H    -3.364891     2.119401     0.460617
H    -3.455683    -0.368792    -1.783040
H    -3.462726    -1.081575     1.442854
8
Optimization step: 2. E: -227.81027337071586
C     0.104134     0.163969     0.042108
O     1.438363     1.918009     0.467495
O     1.003852    -2.116952    -0.505879
H     2.798770    -2.031352    -0.476552
C    -2.732633     0.218540     0.039842
H    -3.376069     2.107948     0.457744
H    -3.436942    -0.379644    -1.787841
H    -3.448409    -1.094056     1.440066
8
Optimization step: 3. E: -227.8102067225746
C     0.103893     0.175603     0.019027
O     1.443186     1.916316     0.471243
O     1.001246    -2.120955    -0.495975
H     2.798718    -2.047798    -0.453652
C    -2.734814     0.217102     0.041201
H    -3.387044     2.100847     0.474581
H    -3.448166    -0.374039    -1.785122
H    -3.432488    -1.107120     1.439578
8
Optimization step: 4. E: -227.81027872510825
C     0.101701     0.171814     0.044080
O     1.448539     1.915052     0.461542
O     1.000203    -2.118538    -0.501964
H     2.800352    -2.040940    -0.476296
C    -2.737769     0.218328     0.040605
H    -3.392422     2.104324     0.461380
H    -3.436062    -0.378867    -1.789801
H    -3.447969    -1.100391     1.437927
8
Optimization step: 5. E: -227.81029004774112
C     0.102971     0.170099     0.040301
O     1.445431     1.916682     0.462776
O     0.999728    -2.119295    -0.500991
H     2.797239    -2.036594    -0.471995
C    -2.734840     0.218365     0.040808
H    -3.386163     2.104626     0.463581
H    -3.435980    -0.377175    -1.788945
H    -3.444334    -1.100627     1.438112
8
Optimization step: 6. E: -227.81029017290516
C     0.102851     0.169953     0.040070
O     1.445151     1.917108     0.461050
O     1.000120    -2.119654    -0.499459
H     2.797584    -2.037276    -0.471068
C    -2.734871     0.218473     0.041152
H    -3.386482     2.104308     0.465269
H    -3.436041    -0.375681    -1.789043
H    -3.444265    -1.101712     1.437330
